c b=3,c=1673
p cnf 17 44
3 -6 0
3 -9 0
1 3 -13 0
2 3 -15 0
1 3 -16 0
-3 6 0
-3 9 0
1 -3 13 0
1 2 -3 15 0
1 2 -3 16 0
2 -5 0
2 -8 0
2 -12 0
1 2 -14 0
1 2 -17 0
1 -2 3 15 0
3 -17 0
1 -2 -3 -15 0
-2 -3 17 0
-2 5 0
-2 8 0
-2 12 0
1 -2 14 0
1 -2 -16 0
1 -4 0
1 -7 0
1 -11 0
-1 3 13 0
-1 2 3 14 0
-1 -3 -13 0
2 -3 -14 0
-1 -3 17 0
-1 2 -15 0
-1 2 -16 0
-1 -2 3 -14 0
-1 3 -15 0
-1 -2 3 16 0
-2 -3 14 0
-1 -2 -3 15 0
-1 -3 -16 0
-1 4 0
-1 7 0
-1 11 0
-10 0
